db/data/1113234221864321220531115363265015961.z3.out
-------------------
2500.175244583
